;  depth   = 3
;  nconst  = 6
;  assertions = 7
;  timeout = 2500
;  time    = {'smt_solvers/QF_S/z3seq/': 7.136476039886475, 'smt_solvers/QF_S/z3str3fed/': 1.1562697887420654, 'smt_solvers/QF_S/z3str3/': 0.13905715942382812, 'smt_solvers/QF_S/cvc4/': 212.51564764976501}
;  score   = 205.37917160987854
;  stdout  = {'smt_solvers/QF_S/z3seq/': 'sat', 'smt_solvers/QF_S/z3str3fed/': 'unsat', 'smt_solvers/QF_S/z3str3/': 'unsat', 'smt_solvers/QF_S/cvc4/': 'sat'}
(set-logic ALL)(declare-fun var0 () String)(declare-fun var1 () String)(declare-fun var2 () String)(declare-fun var3 () String)(declare-fun var4 () String)(declare-fun var5 () String)(declare-fun var6 () Int)(declare-fun var7 () Int)(declare-fun var8 () Int)(declare-fun var9 () Int)(declare-fun var10 () Int)(declare-fun var11 () Int)(declare-fun var12 () Bool)(declare-fun var13 () Bool)(declare-fun var14 () Bool)(declare-fun var15 () Bool)(declare-fun var16 () Bool)(declare-fun var17 () Bool)(assert (str.prefixof var4 "(H""`&w=;kX"))(assert (str.contains "bKy5JGCee*" var2))(assert (< (str.len (str.substr var1 9 var7)) (str.indexof (str.substr var2 var6 var7) (str.substr var0 var10 var7) (str.indexof var2 var1 var7))))(assert (<= var6 var10))(assert (str.prefixof (str.at var4 var8) (str.at var4 var8)))(assert (>= (str.indexof (str.substr var0 var10 var11) (str.substr var2 var8 var10) (str.len var4)) (str.indexof var2 var2 (str.indexof var3 var0 var7))))(assert (str.prefixof (str.substr "$I0G5GJb6r" var6 var11) (str.replace var2 var4 var3)))(check-sat)